cliques=[{5,6,2,1,0,7,3,4},{25,86,108,57,64,1,44,97,35},{19,2,50,26,124,74,65,10,45,87},{36,109,88,27,20,3,98,11,75},{89,100,77,37,59,29,4,111,12,52,21,126},{5,53,112,68,14,39,46,78,22},{113,6,41,55,122,71,83,47,32,95},{5,6,2,1,0,7,3,4},{17,15,14,9,13,16,10,8,12,11},{17,15,14,9,13,16,10,8,12,11},{19,2,50,26,124,74,65,10,45,87},{17,15,14,9,13,16,10,8,12,11},{89,100,77,37,59,29,4,111,12,52,21,126},{17,15,14,9,13,16,10,8,12,11},{17,15,14,9,13,16,10,8,12,11},{17,15,14,9,13,16,10,8,12,11},{17,15,14,9,13,16,10,8,12,11},{17,15,14,9,13,16,10,8,12,11},{123,0,49,84,115,8,18,106,56,63,42},{19,2,50,26,124,74,65,10,45,87},{36,109,88,27,20,3,98,11,75},{89,100,77,37,59,29,4,111,12,52,21,126},{5,53,112,68,14,39,46,78,22},{80,103,23,16,70,119,128,92},{94,40,24,121,54,82},{25,86,108,57,64,1,44,97,35},{19,2,50,26,124,74,65,10,45,87},{25,26,27,31,33,29,32,30,28},{25,26,27,31,33,29,32,30,28},{89,100,77,37,59,29,4,111,12,52,21,126},{38,117,101,60,90,13,67,127,30},{25,26,27,31,33,29,32,30,28},{113,6,41,55,122,71,83,47,32,95},{25,26,27,31,33,29,32,30,28},{36,38,40,41,37,34,39,35},{25,86,108,57,64,1,44,97,35},{36,38,40,41,37,34,39,35},{89,100,77,37,59,29,4,111,12,52,21,126},{38,117,101,60,90,13,67,127,30},{36,38,40,41,37,34,39,35},{36,38,40,41,37,34,39,35},{113,6,41,55,122,71,83,47,32,95},{123,0,49,84,115,8,18,106,56,63,42},{107,43,85,9,34,73},{25,86,108,57,64,1,44,97,35},{19,2,50,26,124,74,65,10,45,87},{5,53,112,68,14,39,46,78,22},{113,6,41,55,122,71,83,47,32,95},{62,105,48,33,114,7,96,72},{123,0,49,84,115,8,18,106,56,63,42},{19,2,50,26,124,74,65,10,45,87},{66,58,125,99,51,76,116,110,28},{89,100,77,37,59,29,4,111,12,52,21,126},{5,53,112,68,14,39,46,78,22},{53,50,55,54,51,49,52},{113,6,41,55,122,71,83,47,32,95},{123,0,49,84,115,8,18,106,56,63,42},{25,86,108,57,64,1,44,97,35},{66,58,125,99,51,76,116,110,28},{89,100,77,37,59,29,4,111,12,52,21,126},{38,117,101,60,90,13,67,127,30},{62,58,57,60,59,61,56},{62,105,48,33,114,7,96,72},{69,66,68,64,71,65,67,70,63,72},{69,66,68,64,71,65,67,70,63,72},{19,2,50,26,124,74,65,10,45,87},{69,66,68,64,71,65,67,70,63,72},{69,66,68,64,71,65,67,70,63,72},{69,66,68,64,71,65,67,70,63,72},{69,66,68,64,71,65,67,70,63,72},{69,66,68,64,71,65,67,70,63,72},{113,6,41,55,122,71,83,47,32,95},{69,66,68,64,71,65,67,70,63,72},{81,80,74,77,83,79,76,73,82,75,78},{19,2,50,26,124,74,65,10,45,87},{81,80,74,77,83,79,76,73,82,75,78},{81,80,74,77,83,79,76,73,82,75,78},{89,100,77,37,59,29,4,111,12,52,21,126},{81,80,74,77,83,79,76,73,82,75,78},{81,80,74,77,83,79,76,73,82,75,78},{81,80,74,77,83,79,76,73,82,75,78},{81,80,74,77,83,79,76,73,82,75,78},{81,80,74,77,83,79,76,73,82,75,78},{113,6,41,55,122,71,83,47,32,95},{94,89,86,88,85,93,90,91,84,87,96,95,92},{94,89,86,88,85,93,90,91,84,87,96,95,92},{94,89,86,88,85,93,90,91,84,87,96,95,92},{94,89,86,88,85,93,90,91,84,87,96,95,92},{94,89,86,88,85,93,90,91,84,87,96,95,92},{94,89,86,88,85,93,90,91,84,87,96,95,92},{94,89,86,88,85,93,90,91,84,87,96,95,92},{94,89,86,88,85,93,90,91,84,87,96,95,92},{94,89,86,88,85,93,90,91,84,87,96,95,92},{94,89,86,88,85,93,90,91,84,87,96,95,92},{94,89,86,88,85,93,90,91,84,87,96,95,92},{94,89,86,88,85,93,90,91,84,87,96,95,92},{94,89,86,88,85,93,90,91,84,87,96,95,92},{102,105,101,103,100,99,104,97,98},{102,105,101,103,100,99,104,97,98},{102,105,101,103,100,99,104,97,98},{89,100,77,37,59,29,4,111,12,52,21,126},{102,105,101,103,100,99,104,97,98},{102,105,101,103,100,99,104,97,98},{102,105,101,103,100,99,104,97,98},{102,105,101,103,100,99,104,97,98},{102,105,101,103,100,99,104,97,98},{113,112,109,108,107,114,110,106,111},{113,112,109,108,107,114,110,106,111},{113,112,109,108,107,114,110,106,111},{113,112,109,108,107,114,110,106,111},{113,112,109,108,107,114,110,106,111},{89,100,77,37,59,29,4,111,12,52,21,126},{113,112,109,108,107,114,110,106,111},{113,6,41,55,122,71,83,47,32,95},{113,112,109,108,107,114,110,106,111},{123,0,49,84,115,8,18,106,56,63,42},{66,58,125,99,51,76,116,110,28},{38,117,101,60,90,13,67,127,30},{117,122,121,115,116,120,119,118},{117,122,121,115,116,120,119,118},{117,122,121,115,116,120,119,118},{117,122,121,115,116,120,119,118},{113,6,41,55,122,71,83,47,32,95},{123,0,49,84,115,8,18,106,56,63,42},{19,2,50,26,124,74,65,10,45,87},{66,58,125,99,51,76,116,110,28},{89,100,77,37,59,29,4,111,12,52,21,126},{38,117,101,60,90,13,67,127,30},{80,103,23,16,70,119,128,92}];
nr_cliques=129;
